  time   case   E           dstran       stran       tempstran    stress xx
  0.1000   1 2.85000E+07  4.42203E-04  0.00000E+00  4.42203E-04  1.26028E+04
  0.2000   1 2.85000E+07  8.84601E-04  5.35734E-11  8.84601E-04  2.52111E+04
  0.3000   1 2.85000E+07  1.32719E-03  1.86587E-10  1.32720E-03  3.78251E+04
  0.4000   1 2.85000E+07  1.76998E-03  2.96549E-10  1.76998E-03  5.04445E+04
  0.5000   1 2.85000E+07  1.79218E-03  5.39950E-10  1.79218E-03  5.10772E+04
  0.6000   1 2.85000E+07  1.35162E-03  4.19286E-04  1.77091E-03  5.04709E+04
  0.7000   1 2.85000E+07  9.09915E-04  8.82118E-04  1.79203E-03  5.10729E+04
  0.8000   1 2.85000E+07  4.69017E-04  1.30282E-03  1.77184E-03  5.04974E+04
  0.9000   1 2.85000E+07  2.17146E-04  1.76500E-03  1.98215E-03  5.64912E+04
  1.0000   3 3.89043E+05  6.31371E-03  1.99680E-03  8.31051E-03  5.94551E+04
